n_machines = 3;
n_resources = 5;
n_jobs = 25;
horizon = 13686;
LB = 4562;
n_jobs_per_resource = [9, 5, 5, 4, 2];
duration = [10, 714, 674, 28, 791, 146, 560, 768, 51, 64, 750, 867, 300, 804, 803, 437, 203, 813, 867, 521, 470, 608, 799, 723, 915]